(set-logic QF_NRA)
(push 1)
(push 1)
(declare-const x$851!4143 Real )
(push 1)
(pop 1)
(pop 1)
(pop 1)
(push 1)
(push 1)
(declare-const x$852!4144 Real )
(declare-const y$853!4145 Real )
(push 1)
(pop 1)
(pop 1)
(pop 1)
(push 1)
(push 1)
(declare-const x$854!4146 Real )
(declare-const y$855!4147 Real )
(push 1)
(pop 1)
(pop 1)
(pop 1)
(push 1)
(push 1)
(declare-const x$856!4148 Real )
(declare-const y$857!4149 Real )
(push 1)
(pop 1)
(pop 1)
(pop 1)
(push 1)
(push 1)
(declare-const x$858!4150 Real )
(declare-const y$859!4151 Real )
(push 1)
(pop 1)
(pop 1)
(pop 1)
(push 1)
(push 1)
(declare-const i$860!4152 Int )
(declare-const x$861!4153 Real )
(push 1)
(pop 1)
(pop 1)
(pop 1)
(push 1)
(push 1)
(declare-const x$862!4154 Real )
(declare-const i$863!4155 Int )
(push 1)
(pop 1)
(pop 1)
(pop 1)
(push 1)
(push 1)
(declare-const i$864!4156 Int )
(declare-const x$865!4157 Real )
(push 1)
(pop 1)
(pop 1)
(pop 1)
(push 1)
(push 1)
(declare-const x$866!4158 Real )
(declare-const i$867!4159 Int )
(push 1)
(pop 1)
(pop 1)
(pop 1)
(push 1)
(push 1)
(declare-const x$868!4160 Real )
(declare-const y$869!4161 Real )
(push 1)
(pop 1)
(pop 1)
(pop 1)
(push 1)
(push 1)
(declare-const x$870!4162 Real )
(declare-const y$871!4163 Real )
(push 1)
(pop 1)
(pop 1)
(pop 1)
(push 1)
(push 1)
(declare-const x$872!4164 Real )
(declare-const y$873!4165 Real )
(push 1)
(pop 1)
(pop 1)
(pop 1)
(push 1)
(push 1)
(declare-const x$874!4166 Real )
(declare-const y$875!4167 Real )
(push 1)
(pop 1)
(pop 1)
(pop 1)
(push 1)
(push 1)
(declare-const x$876!4168 Real )
(declare-const y$877!4169 Real )
(push 1)
(pop 1)
(pop 1)
(pop 1)
(push 1)
(push 1)
(declare-const x$878!4170 Real )
(declare-const y$879!4171 Real )
(push 1)
(pop 1)
(pop 1)
(pop 1)
(push 1)
(push 1)
(declare-const x$880!4172 Real )
(declare-const i$881!4173 Int )
(push 1)
(pop 1)
(pop 1)
(pop 1)
(push 1)
(push 1)
(declare-const x$882!4174 Real )
(declare-const i$883!4175 Int )
(push 1)
(pop 1)
(pop 1)
(pop 1)
(push 1)
(push 1)
(declare-const x$884!4176 Real )
(declare-const i$885!4177 Int )
(push 1)
(pop 1)
(pop 1)
(pop 1)
(push 1)
(push 1)
(declare-const x$886!4178 Real )
(declare-const i$887!4179 Int )
(push 1)
(pop 1)
(pop 1)
(pop 1)
(push 1)
(push 1)
(declare-const x$888!4180 Real )
(declare-const i$889!4181 Int )
(push 1)
(pop 1)
(pop 1)
(pop 1)
(push 1)
(push 1)
(declare-const x$890!4182 Real )
(declare-const i$891!4183 Int )
(push 1)
(pop 1)
(pop 1)
(pop 1)
(push 1)
(push 1)
(declare-const i$892!4184 Int )
(push 1)
(pop 1)
(pop 1)
(pop 1)
(push 1)
(push 1)
(declare-const x$893!4185 Real )
(push 1)
(pop 1)
(pop 1)
(pop 1)
(push 1)
(push 1)
(declare-const x$894!4186 Real )
(assert (>= x$894!4186 0 ) )
(push 1)
(pop 1)
(pop 1)
(pop 1)
(push 1)
(push 1)
(declare-const r$914!4226 Real )
(push 1)
(pop 1)
(pop 1)
(pop 1)
(push 1)
(push 1)
(declare-const r$915!4227 Real )
(push 1)
(pop 1)
(pop 1)
(pop 1)
(push 1)
(push 1)
(declare-const r$916!4228 Real )
(pop 1)
(pop 1)
(push 1)
(push 1)
(declare-const x!4204 Real )
(declare-const v!4205 Real )
(push 1)
(push 1)
(assert (> x!4204 0 ) )
(push 1)
(push 1)
(assert (not (> x!4204 0 ) ) )
(check-sat)
(pop 1)
(pop 1)
(push 1)
(pop 1)
(pop 1)
(push 1)
(assert (not (> x!4204 0 ) ) )
(push 1)
(push 1)
(assert (not (<= x!4204 0 ) ) )
(check-sat)
(pop 1)
(pop 1)
(push 1)
(pop 1)
(pop 1)
(pop 1)
(pop 1)
(pop 1)
(push 1)
(push 1)
(declare-const x!4206 Real )
(declare-const v!4207 Real )
(push 1)
(push 1)
(assert (> v!4207 0 ) )
(push 1)
(push 1)
(assert (not (> v!4207 0 ) ) )
(check-sat)
(pop 1)
(pop 1)
(push 1)
(pop 1)
(pop 1)
(push 1)
(assert (not (> v!4207 0 ) ) )
(push 1)
(push 1)
(assert (not (<= v!4207 0 ) ) )
(check-sat)
(pop 1)
(pop 1)
(push 1)
(pop 1)
(pop 1)
(pop 1)
(pop 1)
(pop 1)
(exit)